p wcnf 152 304 305 
1 -145 26 0 
1 58 -138 0 
1 24 93 0 
1 38 -35 0 
1 127 -105 0 
1 66 -70 0 
1 -41 -131 0 
1 -33 76 0 
1 -101 -18 0 
1 27 19 0 
1 16 -41 0 
1 132 71 0 
1 118 -36 0 
1 146 136 0 
1 89 130 0 
1 129 -69 0 
1 25 -66 0 
1 -42 -24 0 
1 -35 110 0 
1 -149 66 0 
1 -31 17 0 
1 -26 116 0 
1 88 145 0 
1 20 36 0 
1 115 90 0 
1 -128 -34 0 
1 -143 -61 0 
1 113 -123 0 
1 -33 99 0 
1 133 115 0 
1 67 12 0 
1 146 97 0 
1 39 -151 0 
1 -83 -120 0 
1 -28 12 0 
1 72 68 0 
1 -115 -129 0 
1 -123 -118 0 
1 -35 -5 0 
1 17 1 0 
1 43 -37 0 
1 30 -70 0 
1 -19 -18 0 
1 -40 -143 0 
1 -82 -30 0 
1 -100 9 0 
1 -114 -12 0 
1 -134 8 0 
1 -64 33 0 
1 44 47 0 
1 -41 -117 0 
1 -12 -92 0 
1 -49 141 0 
1 -135 126 0 
1 -146 13 0 
1 106 82 0 
1 151 44 0 
1 62 23 0 
1 68 11 0 
1 46 -27 0 
1 130 112 0 
1 125 -29 0 
1 -13 -7 0 
1 -13 -51 0 
1 76 -7 0 
1 -92 -9 0 
1 -147 17 0 
1 143 -80 0 
1 37 102 0 
1 85 -115 0 
1 90 -119 0 
1 -14 46 0 
1 -115 105 0 
1 5 -61 0 
1 110 23 0 
1 29 35 0 
1 87 -144 0 
1 -88 -62 0 
1 -29 -56 0 
1 105 -68 0 
1 39 -54 0 
1 111 46 0 
1 78 -76 0 
1 -49 85 0 
1 -14 -120 0 
1 45 -144 0 
1 -24 -47 0 
1 10 103 0 
1 -100 90 0 
1 126 105 0 
1 58 -19 0 
1 -84 -1 0 
1 140 125 0 
1 -10 131 0 
1 -21 152 0 
1 104 -134 0 
1 29 99 0 
1 21 126 0 
1 -98 95 0 
1 29 125 0 
1 95 -56 0 
1 104 62 0 
1 -26 -98 0 
1 9 -40 0 
1 -92 126 0 
1 -45 123 0 
1 79 28 0 
1 -84 132 0 
1 -69 -57 0 
1 85 -27 0 
1 -31 142 0 
1 -80 -149 0 
1 -20 66 0 
1 -92 72 0 
1 -44 24 0 
1 -18 -108 0 
1 41 53 0 
1 -42 -150 0 
1 139 67 0 
1 106 59 0 
1 -134 -65 0 
1 150 -111 0 
1 -127 145 0 
1 -80 18 0 
1 10 -21 0 
1 -133 46 0 
1 -16 -56 0 
1 140 -62 0 
1 119 126 0 
1 -68 -86 0 
1 -97 88 0 
1 -29 78 0 
1 66 -20 0 
1 -99 -41 0 
1 52 116 0 
1 148 129 0 
1 2 101 0 
1 -12 -144 0 
1 -23 17 0 
1 -87 135 0 
1 -13 -141 0 
1 62 102 0 
1 -32 -1 0 
1 -101 -150 0 
1 94 -131 0 
1 10 146 0 
1 -76 -27 0 
1 14 -136 0 
1 -69 97 0 
1 -51 105 0 
1 42 -126 0 
1 5 -105 0 
1 57 -147 0 
1 -114 81 0 
1 38 131 0 
1 26 -105 0 
1 146 53 0 
1 92 126 0 
1 -53 111 0 
1 -78 19 0 
1 150 10 0 
1 -146 -36 0 
1 -36 28 0 
1 -46 112 0 
1 128 57 0 
1 4 -129 0 
1 25 11 0 
1 104 54 0 
1 -35 -69 0 
1 -41 102 0 
1 -110 -106 0 
1 67 -10 0 
1 31 146 0 
1 -118 123 0 
1 -141 -55 0 
1 -48 -24 0 
1 -37 -104 0 
1 97 113 0 
1 -56 -143 0 
1 31 -29 0 
1 43 -33 0 
1 83 -12 0 
1 105 107 0 
1 -25 -58 0 
1 118 -120 0 
1 -16 -26 0 
1 82 20 0 
1 -25 58 0 
1 1 -104 0 
1 14 -150 0 
1 -115 41 0 
1 113 52 0 
1 151 -54 0 
1 -126 -134 0 
1 -141 -76 0 
1 -3 111 0 
1 -106 149 0 
1 55 37 0 
1 -141 -64 0 
1 44 97 0 
1 49 -70 0 
1 102 -32 0 
1 -108 143 0 
1 53 -52 0 
1 -76 -121 0 
1 79 77 0 
1 129 -86 0 
1 -109 50 0 
1 -59 72 0 
1 144 -88 0 
1 128 74 0 
1 58 118 0 
1 13 44 0 
1 -127 -58 0 
1 -145 -79 0 
1 -110 2 0 
1 112 -132 0 
1 -143 36 0 
1 124 -25 0 
1 109 64 0 
1 60 -1 0 
1 -71 27 0 
1 -44 105 0 
1 -127 -20 0 
1 -7 119 0 
1 6 -105 0 
1 -25 48 0 
1 68 19 0 
1 13 -35 0 
1 -89 -44 0 
1 150 26 0 
1 133 -25 0 
1 146 58 0 
1 35 -58 0 
1 87 56 0 
1 -53 58 0 
1 -102 -105 0 
1 -96 112 0 
1 -127 45 0 
1 34 -89 0 
1 -8 -43 0 
1 -12 107 0 
1 118 -102 0 
1 42 101 0 
1 97 -121 0 
1 40 -107 0 
1 96 132 0 
1 -150 26 0 
1 38 119 0 
1 -17 -33 0 
1 94 56 0 
1 58 -16 0 
1 123 -17 0 
1 11 142 0 
1 95 -110 0 
1 103 114 0 
1 -66 -123 0 
1 -125 -84 0 
1 128 23 0 
1 -90 -124 0 
1 -127 3 0 
1 -23 126 0 
1 92 -129 0 
1 -107 56 0 
1 -116 50 0 
1 129 147 0 
1 -108 11 0 
1 35 -9 0 
1 82 49 0 
1 -17 -42 0 
1 30 -45 0 
1 -68 23 0 
1 21 135 0 
1 -34 107 0 
1 93 136 0 
1 127 -36 0 
1 5 20 0 
1 -123 -117 0 
1 10 58 0 
1 47 -143 0 
1 -19 -55 0 
1 -1 81 0 
1 1 -109 0 
1 104 19 0 
1 49 75 0 
1 -129 146 0 
1 -7 -87 0 
1 -132 148 0 
1 72 31 0 
1 145 37 0 
1 125 135 0 
1 86 146 0 
1 40 -111 0 
1 -95 -21 0 
1 147 -95 0 
1 149 -54 0 
1 -149 66 0 
1 28 2 0 
1 -34 -5 0 
1 -115 -133 0 
1 -126 -146 0 
1 -133 -41 0 
1 -100 -145 0 
1 -132 25 0 
